TOUR_SECTION
3
114
140
162
62
35
134
70
199
13
33
151
28
45
79
159
84
71
143
146
68
85
38
123
41
21
144
17
113
165
91
174
179
42
65
58
181
192
106
149
66
93
31
30
44
15
197
4
186
92
52
147
171
96
55
75
119
170
136
99
127
103
178
166
115
40
43
11
184
36
2
80
81
14
116
152
138
86
54
111
6
83
112
117
126
87
183
125
56
18
156
164
39
20
74
90
187
154
182
5
120
200
193
7
78
189
16
190
172
57
100
173
24
153
196
145
88
132
61
51
137
9
135
8
110
72
118
177
121
150
34
194
63
53
60
67
22
160
180
1
59
168
161
19
10
37
46
95
129
32
64
48
29
176
101
195
97
133
130
27
139
107
185
47
188
26
158
198
73
109
49
23
69
12
141
25
77
155
102
104
175
82
163
122
76
105
89
94
131
167
124
98
50
142
148
108
128
191
169
157
-1
EOF